(set-info :source |printed by MathSAT|)
(declare-fun _OK_ () Bool)
(declare-fun param__S_.next () Bool)
(declare-fun call__main_.call_hypothese2.flby2 () Int)
(declare-fun call__main_.call_hypothese2.ite.next () Bool)
(declare-fun diff1.next () Int)
(declare-fun call__main_.call_hypothese2.c () Int)
(declare-fun call__main_.call_hypothese.ite3.next () Int)
(declare-fun call__main_.call_controleur2.diff () Int)
(declare-fun call__main_.call_controleur.avance () Bool)
(declare-fun call__main_.call_hypothese.c.next () Int)
(declare-fun call__main_.call_hypothese2.flby.next () Bool)
(declare-fun call__main_.call_controleur.retard.next () Bool)
(declare-fun call__main_.call_controleur2.avance () Bool)
(declare-fun call_Sofar.Sofar.next () Bool)
(declare-fun call__main_.call_controleur2.ite.next () Bool)
(declare-fun call__main_.nB1 () Int)
(declare-fun call__main_.avance1.next () Bool)
(declare-fun nB1 () Int)
(declare-fun retard0.next () Bool)
(declare-fun call__main_.call_controleur2.flby2.next () Bool)
(declare-fun call__main_.call_hypothese.ok.next () Bool)
(declare-fun call__main_.flby2.next () Int)
(declare-fun call__main_.ast () Bool)
(declare-fun flby.next () Bool)
(declare-fun call__main_.flby3.next () Int)
(declare-fun call__main_.nB0.next () Int)
(declare-fun ast.next () Bool)
(declare-fun call_Sofar.flby () Bool)
(declare-fun call__main_._H0_ () Bool)
(declare-fun diff1 () Int)
(declare-fun call__main_.call_controleur.flby () Bool)
(declare-fun call__main_.avance0.next () Bool)
(declare-fun call__main_.call_hypothese2.ite4.next () Int)
(declare-fun call__main_.nS () Int)
(declare-fun call__main_.call_controleur.diff.next () Int)
(declare-fun call__main_.call_hypothese.c () Int)
(declare-fun call__main_.flby3 () Int)
(declare-fun call__main_.diff0 () Int)
(declare-fun call__main_.ite2.next () Int)
(declare-fun call__main_.call_controleur2.avance.next () Bool)
(declare-fun call__main_.call_controleur2.diff.next () Int)
(declare-fun param__B1_.next () Bool)
(declare-fun nS.next () Int)
(declare-fun call__main_.call_hypothese.ok () Bool)
(declare-fun call__main_.flby2 () Int)
(declare-fun nB0 () Int)
(declare-fun call__main_.call_hypothese2.ite2.next () Bool)
(declare-fun call__main_.call_hypothese.flby2 () Int)
(declare-fun diff0.next () Int)
(declare-fun call__main_.call_hypothese.ite2.next () Bool)
(declare-fun call__main_._H1_.next () Bool)
(declare-fun call__main_.call_controleur2.retard () Bool)
(declare-fun avance1 () Bool)
(declare-fun call__main_.call_controleur.ite.next () Bool)
(declare-fun call__main_.call_hypothese.ite4.next () Int)
(declare-fun call__main_.call_hypothese.flby () Bool)
(declare-fun call__main_.ast.next () Bool)
(declare-fun ast () Bool)
(declare-fun avance1.next () Bool)
(declare-fun call__main_.call_hypothese.flby2.next () Int)
(declare-fun call__main_.diff1 () Int)
(declare-fun call__main_._H1_ () Bool)
(declare-fun avance0 () Bool)
(declare-fun call__main_.ite.next () Int)
(declare-fun call__main_.call_hypothese2.ok.next () Bool)
(declare-fun call__main_.avance0 () Bool)
(declare-fun call__main_.nS.next () Int)
(declare-fun call__main_.call_controleur.flby2 () Bool)
(declare-fun call__main_.call_controleur.ite2.next () Bool)
(declare-fun nS () Int)
(declare-fun nB1.next () Int)
(declare-fun retard1.next () Bool)
(declare-fun call__main_.call_controleur2.retard.next () Bool)
(declare-fun call_Sofar.flby.next () Bool)
(declare-fun call__main_.call_controleur.avance.next () Bool)
(declare-fun retard0 () Bool)
(declare-fun call__main_.avance1 () Bool)
(declare-fun call__main_.call_hypothese.flby.next () Bool)
(declare-fun call__main_.call_hypothese.ite.next () Bool)
(declare-fun _OK_.next () Bool)
(declare-fun nB0.next () Int)
(declare-fun call__main_.retard0.next () Bool)
(declare-fun call__main_.call_controleur2.flby.next () Bool)
(declare-fun call__main_.call_controleur2.ite2.next () Bool)
(declare-fun call__main_.call_controleur.retard () Bool)
(declare-fun call_Sofar.Sofar () Bool)
(declare-fun flby2.next () Bool)
(declare-fun call__main_.call_controleur.flby.next () Bool)
(declare-fun call__main_.retard1 () Bool)
(declare-fun avance0.next () Bool)
(declare-fun call__main_.diff0.next () Int)
(declare-fun call__main_.call_hypothese2.flby () Bool)
(declare-fun call__main_.diff1.next () Int)
(declare-fun call__main_.call_hypothese2.c.next () Int)
(declare-fun diff0 () Int)
(declare-fun param__B0_.next () Bool)
(declare-fun call__main_.retard0 () Bool)
(declare-fun call__main_.retard1.next () Bool)
(declare-fun call__main_.nB1.next () Int)
(declare-fun call__main_.call_hypothese2.flby2.next () Int)
(declare-fun call__main_.call_controleur.flby2.next () Bool)
(declare-fun pOK () Bool)
(declare-fun flby2 () Bool)
(declare-fun retard1 () Bool)
(declare-fun call__main_.flby () Int)
(declare-fun call__main_.call_controleur.diff () Int)
(declare-fun call__main_.ite3.next () Int)
(declare-fun flby () Bool)
(declare-fun call__main_.nB0 () Int)
(declare-fun call__main_._H0_.next () Bool)
(declare-fun call__main_.call_hypothese2.ok () Bool)
(declare-fun call__main_.call_hypothese2.ite3.next () Int)
(declare-fun pOK.next () Bool)
(declare-fun call__main_.flby.next () Int)
(declare-fun call__main_.call_controleur2.flby2 () Bool)
(declare-fun call__main_.call_controleur2.flby () Bool)
(define-fun .def_995 () Bool (= call_Sofar.flby.next call_Sofar.Sofar.next))
(define-fun .def_993 () Bool (= call__main_.call_controleur2.flby2.next call__main_.call_controleur2.retard.next))
(define-fun .def_991 () Bool (= call__main_.call_controleur2.flby.next call__main_.call_controleur2.avance.next))
(define-fun .def_984 () Int (* (- 1) call__main_.nB1.next))
(define-fun .def_987 () Int (+ .def_984 call__main_.nS.next))
(define-fun .def_988 () Int (+ call__main_.call_controleur2.diff.next .def_987))
(define-fun .def_989 () Bool (= .def_988 0))
(define-fun .def_982 () Bool (= call__main_.call_controleur.flby2.next call__main_.call_controleur.retard.next))
(define-fun .def_980 () Bool (= call__main_.call_controleur.flby.next call__main_.call_controleur.avance.next))
(define-fun .def_973 () Int (* (- 1) call__main_.nB0.next))
(define-fun .def_976 () Int (+ .def_973 call__main_.nS.next))
(define-fun .def_977 () Int (+ call__main_.call_controleur.diff.next .def_976))
(define-fun .def_978 () Bool (= .def_977 0))
(define-fun .def_971 () Bool (= call__main_.call_hypothese2.flby2.next call__main_.call_hypothese2.c.next))
(define-fun .def_968 () Bool (= call__main_.call_hypothese2.flby.next call__main_.call_hypothese2.ok.next))
(define-fun .def_966 () Bool (= call__main_.call_hypothese.flby2.next call__main_.call_hypothese.c.next))
(define-fun .def_963 () Bool (= call__main_.call_hypothese.flby.next call__main_.call_hypothese.ok.next))
(define-fun .def_961 () Bool (= call__main_._H1_.next call__main_.call_hypothese2.ok.next))
(define-fun .def_958 () Bool (= call__main_._H0_.next call__main_.call_hypothese.ok.next))
(define-fun .def_955 () Bool (= call__main_.retard1.next call__main_.call_controleur2.retard.next))
(define-fun .def_952 () Bool (= call__main_.retard0.next call__main_.call_controleur.retard.next))
(define-fun .def_949 () Bool (= call__main_.avance1.next call__main_.call_controleur2.avance.next))
(define-fun .def_946 () Bool (= call__main_.avance0.next call__main_.call_controleur.avance.next))
(define-fun .def_943 () Bool (= call__main_.call_controleur2.diff.next call__main_.diff1.next))
(define-fun .def_941 () Bool (= call__main_.call_controleur.diff.next call__main_.diff0.next))
(define-fun .def_939 () Bool (= call__main_.flby3.next call__main_.nS.next))
(define-fun .def_937 () Bool (= call__main_.flby2.next call__main_.nB1.next))
(define-fun .def_935 () Bool (= call__main_.flby.next call__main_.nB0.next))
(define-fun .def_932 () Bool (and call__main_._H0_.next call__main_._H1_.next))
(define-fun .def_933 () Bool (= call__main_.ast.next .def_932))
(define-fun .def_928 () Bool (= ast.next call__main_.ast.next))
(define-fun .def_925 () Bool (= flby.next pOK.next))
(define-fun .def_922 () Bool (= retard1.next call__main_.retard1.next))
(define-fun .def_918 () Bool (= retard0.next call__main_.retard0.next))
(define-fun .def_915 () Bool (= call__main_.avance1.next avance1.next))
(define-fun .def_912 () Bool (= avance0.next call__main_.avance0.next))
(define-fun .def_910 () Bool (= diff1.next call__main_.diff1.next))
(define-fun .def_906 () Bool (= diff0.next call__main_.diff0.next))
(define-fun .def_903 () Bool (= nS.next call__main_.nS.next))
(define-fun .def_900 () Bool (= nB1.next call__main_.nB1.next))
(define-fun .def_897 () Bool (= nB0.next call__main_.nB0.next))
(define-fun .def_893 () Bool (not call_Sofar.Sofar.next))
(define-fun .def_894 () Bool (or flby2.next .def_893))
(define-fun .def_895 () Bool (= _OK_.next .def_894))
(define-fun .def_898 () Bool (and .def_895 .def_897))
(define-fun .def_901 () Bool (and .def_898 .def_900))
(define-fun .def_904 () Bool (and .def_901 .def_903))
(define-fun .def_907 () Bool (and .def_904 .def_906))
(define-fun .def_911 () Bool (and .def_907 .def_910))
(define-fun .def_913 () Bool (and .def_911 .def_912))
(define-fun .def_916 () Bool (and .def_913 .def_915))
(define-fun .def_919 () Bool (and .def_916 .def_918))
(define-fun .def_923 () Bool (and .def_919 .def_922))
(define-fun .def_926 () Bool (and .def_923 .def_925))
(define-fun .def_929 () Bool (and .def_926 .def_928))
(define-fun .def_934 () Bool (and .def_929 .def_933))
(define-fun .def_936 () Bool (and .def_934 .def_935))
(define-fun .def_938 () Bool (and .def_936 .def_937))
(define-fun .def_940 () Bool (and .def_938 .def_939))
(define-fun .def_942 () Bool (and .def_940 .def_941))
(define-fun .def_944 () Bool (and .def_942 .def_943))
(define-fun .def_947 () Bool (and .def_944 .def_946))
(define-fun .def_950 () Bool (and .def_947 .def_949))
(define-fun .def_953 () Bool (and .def_950 .def_952))
(define-fun .def_956 () Bool (and .def_953 .def_955))
(define-fun .def_959 () Bool (and .def_956 .def_958))
(define-fun .def_962 () Bool (and .def_959 .def_961))
(define-fun .def_964 () Bool (and .def_962 .def_963))
(define-fun .def_967 () Bool (and .def_964 .def_966))
(define-fun .def_969 () Bool (and .def_967 .def_968))
(define-fun .def_972 () Bool (and .def_969 .def_971))
(define-fun .def_979 () Bool (and .def_972 .def_978))
(define-fun .def_981 () Bool (and .def_979 .def_980))
(define-fun .def_983 () Bool (and .def_981 .def_982))
(define-fun .def_990 () Bool (and .def_983 .def_989))
(define-fun .def_992 () Bool (and .def_990 .def_991))
(define-fun .def_994 () Bool (and .def_992 .def_993))
(define-fun .def_996 () Bool (and .def_994 .def_995))
(define-fun .def_677 () Bool (= call_Sofar.flby call_Sofar.Sofar))
(define-fun .def_675 () Bool (= call__main_.call_controleur2.flby2 call__main_.call_controleur2.retard))
(define-fun .def_673 () Bool (= call__main_.call_controleur2.flby call__main_.call_controleur2.avance))
(define-fun .def_668 () Int (* (- 1) call__main_.call_controleur2.diff))
(define-fun .def_656 () Int (* (- 1) call__main_.nS))
(define-fun .def_669 () Int (+ .def_656 .def_668))
(define-fun .def_670 () Int (+ call__main_.nB1 .def_669))
(define-fun .def_671 () Bool (= .def_670 0))
(define-fun .def_663 () Bool (= call__main_.call_controleur.flby2 call__main_.call_controleur.retard))
(define-fun .def_661 () Bool (= call__main_.call_controleur.flby call__main_.call_controleur.avance))
(define-fun .def_655 () Int (* (- 1) call__main_.call_controleur.diff))
(define-fun .def_657 () Int (+ .def_656 .def_655))
(define-fun .def_658 () Int (+ call__main_.nB0 .def_657))
(define-fun .def_659 () Bool (= .def_658 0))
(define-fun .def_650 () Bool (= call__main_.call_hypothese2.flby2 call__main_.call_hypothese2.c))
(define-fun .def_647 () Bool (= call__main_.call_hypothese2.flby call__main_.call_hypothese2.ok))
(define-fun .def_645 () Bool (= call__main_.call_hypothese.flby2 call__main_.call_hypothese.c))
(define-fun .def_642 () Bool (= call__main_.call_hypothese.flby call__main_.call_hypothese.ok))
(define-fun .def_640 () Bool (= call__main_._H1_ call__main_.call_hypothese2.ok))
(define-fun .def_637 () Bool (= call__main_._H0_ call__main_.call_hypothese.ok))
(define-fun .def_634 () Bool (= call__main_.retard1 call__main_.call_controleur2.retard))
(define-fun .def_631 () Bool (= call__main_.retard0 call__main_.call_controleur.retard))
(define-fun .def_628 () Bool (= call__main_.avance1 call__main_.call_controleur2.avance))
(define-fun .def_625 () Bool (= call__main_.avance0 call__main_.call_controleur.avance))
(define-fun .def_622 () Bool (= call__main_.diff1 call__main_.call_controleur2.diff))
(define-fun .def_619 () Bool (= call__main_.diff0 call__main_.call_controleur.diff))
(define-fun .def_616 () Bool (= call__main_.flby3 call__main_.nS))
(define-fun .def_614 () Bool (= call__main_.flby2 call__main_.nB1))
(define-fun .def_612 () Bool (= call__main_.flby call__main_.nB0))
(define-fun .def_609 () Bool (and call__main_._H0_ call__main_._H1_))
(define-fun .def_610 () Bool (= call__main_.ast .def_609))
(define-fun .def_605 () Bool (= ast call__main_.ast))
(define-fun .def_602 () Bool (= flby pOK))
(define-fun .def_599 () Bool (= retard1 call__main_.retard1))
(define-fun .def_595 () Bool (= retard0 call__main_.retard0))
(define-fun .def_591 () Bool (= avance1 call__main_.avance1))
(define-fun .def_587 () Bool (= avance0 call__main_.avance0))
(define-fun .def_583 () Bool (= diff1 call__main_.diff1))
(define-fun .def_579 () Bool (= diff0 call__main_.diff0))
(define-fun .def_576 () Bool (= nS call__main_.nS))
(define-fun .def_573 () Bool (= nB1 call__main_.nB1))
(define-fun .def_570 () Bool (= nB0 call__main_.nB0))
(define-fun .def_566 () Bool (not call_Sofar.Sofar))
(define-fun .def_567 () Bool (or flby2 .def_566))
(define-fun .def_568 () Bool (= _OK_ .def_567))
(define-fun .def_571 () Bool (and .def_568 .def_570))
(define-fun .def_574 () Bool (and .def_571 .def_573))
(define-fun .def_577 () Bool (and .def_574 .def_576))
(define-fun .def_580 () Bool (and .def_577 .def_579))
(define-fun .def_584 () Bool (and .def_580 .def_583))
(define-fun .def_588 () Bool (and .def_584 .def_587))
(define-fun .def_592 () Bool (and .def_588 .def_591))
(define-fun .def_596 () Bool (and .def_592 .def_595))
(define-fun .def_600 () Bool (and .def_596 .def_599))
(define-fun .def_603 () Bool (and .def_600 .def_602))
(define-fun .def_606 () Bool (and .def_603 .def_605))
(define-fun .def_611 () Bool (and .def_606 .def_610))
(define-fun .def_613 () Bool (and .def_611 .def_612))
(define-fun .def_615 () Bool (and .def_613 .def_614))
(define-fun .def_617 () Bool (and .def_615 .def_616))
(define-fun .def_620 () Bool (and .def_617 .def_619))
(define-fun .def_623 () Bool (and .def_620 .def_622))
(define-fun .def_626 () Bool (and .def_623 .def_625))
(define-fun .def_629 () Bool (and .def_626 .def_628))
(define-fun .def_632 () Bool (and .def_629 .def_631))
(define-fun .def_635 () Bool (and .def_632 .def_634))
(define-fun .def_638 () Bool (and .def_635 .def_637))
(define-fun .def_641 () Bool (and .def_638 .def_640))
(define-fun .def_643 () Bool (and .def_641 .def_642))
(define-fun .def_646 () Bool (and .def_643 .def_645))
(define-fun .def_648 () Bool (and .def_646 .def_647))
(define-fun .def_651 () Bool (and .def_648 .def_650))
(define-fun .def_660 () Bool (and .def_651 .def_659))
(define-fun .def_662 () Bool (and .def_660 .def_661))
(define-fun .def_664 () Bool (and .def_662 .def_663))
(define-fun .def_672 () Bool (and .def_664 .def_671))
(define-fun .def_674 () Bool (and .def_672 .def_673))
(define-fun .def_676 () Bool (and .def_674 .def_675))
(define-fun .def_678 () Bool (and .def_676 .def_677))
(define-fun .def_997 () Bool (and .def_678 .def_996))
(define-fun .def_884 () Bool (<= 32767 diff0.next))
(define-fun .def_885 () Bool (not .def_884))
(define-fun .def_880 () Bool (<= 1 nS.next))
(define-fun .def_881 () Bool (not .def_880))
(define-fun .def_876 () Bool (<= 1 nB1.next))
(define-fun .def_877 () Bool (not .def_876))
(define-fun .def_871 () Bool (<= 1 nB0.next))
(define-fun .def_872 () Bool (not .def_871))
(define-fun .def_874 () Bool (and .def_872 ast.next))
(define-fun .def_878 () Bool (and .def_874 .def_877))
(define-fun .def_882 () Bool (and .def_878 .def_881))
(define-fun .def_886 () Bool (and .def_882 .def_885))
(define-fun .def_887 () Bool (and call_Sofar.Sofar .def_886))
(define-fun .def_889 () Bool (= .def_887 call_Sofar.flby.next))
(define-fun .def_868 () Bool (= call__main_.call_controleur2.ite2.next call__main_.call_controleur2.flby2.next))
(define-fun .def_865 () Bool (= call__main_.call_controleur2.ite.next call__main_.call_controleur2.flby.next))
(define-fun .def_858 () Bool (<= 0 call__main_.call_controleur2.diff.next))
(define-fun .def_859 () Bool (not .def_858))
(define-fun .def_860 () Bool (= call__main_.call_controleur2.ite2.next .def_859))
(define-fun .def_857 () Bool (not call__main_.call_controleur2.retard))
(define-fun .def_861 () Bool (or .def_857 .def_860))
(define-fun .def_852 () Bool (<= call__main_.call_controleur2.diff.next (- 10)))
(define-fun .def_854 () Bool (= .def_852 call__main_.call_controleur2.ite2.next))
(define-fun .def_855 () Bool (or call__main_.call_controleur2.retard .def_854))
(define-fun .def_848 () Bool (<= 10 call__main_.call_controleur2.diff.next))
(define-fun .def_849 () Bool (= call__main_.call_controleur2.ite.next .def_848))
(define-fun .def_850 () Bool (or call__main_.call_controleur2.avance .def_849))
(define-fun .def_843 () Bool (<= call__main_.call_controleur2.diff.next 0))
(define-fun .def_844 () Bool (not .def_843))
(define-fun .def_846 () Bool (= .def_844 call__main_.call_controleur2.ite.next))
(define-fun .def_841 () Bool (not call__main_.call_controleur2.avance))
(define-fun .def_847 () Bool (or .def_841 .def_846))
(define-fun .def_851 () Bool (and .def_847 .def_850))
(define-fun .def_856 () Bool (and .def_851 .def_855))
(define-fun .def_862 () Bool (and .def_856 .def_861))
(define-fun .def_839 () Bool (= call__main_.call_controleur.ite2.next call__main_.call_controleur.flby2.next))
(define-fun .def_836 () Bool (= call__main_.call_controleur.ite.next call__main_.call_controleur.flby.next))
(define-fun .def_829 () Bool (<= 0 call__main_.call_controleur.diff.next))
(define-fun .def_830 () Bool (not .def_829))
(define-fun .def_831 () Bool (= call__main_.call_controleur.ite2.next .def_830))
(define-fun .def_828 () Bool (not call__main_.call_controleur.retard))
(define-fun .def_832 () Bool (or .def_828 .def_831))
(define-fun .def_823 () Bool (<= call__main_.call_controleur.diff.next (- 10)))
(define-fun .def_825 () Bool (= .def_823 call__main_.call_controleur.ite2.next))
(define-fun .def_826 () Bool (or call__main_.call_controleur.retard .def_825))
(define-fun .def_819 () Bool (<= 10 call__main_.call_controleur.diff.next))
(define-fun .def_820 () Bool (= call__main_.call_controleur.ite.next .def_819))
(define-fun .def_821 () Bool (or call__main_.call_controleur.avance .def_820))
(define-fun .def_814 () Bool (<= call__main_.call_controleur.diff.next 0))
(define-fun .def_815 () Bool (not .def_814))
(define-fun .def_817 () Bool (= .def_815 call__main_.call_controleur.ite.next))
(define-fun .def_812 () Bool (not call__main_.call_controleur.avance))
(define-fun .def_818 () Bool (or .def_812 .def_817))
(define-fun .def_822 () Bool (and .def_818 .def_821))
(define-fun .def_827 () Bool (and .def_822 .def_826))
(define-fun .def_833 () Bool (and .def_827 .def_832))
(define-fun .def_810 () Bool (= call__main_.call_hypothese2.ite4.next call__main_.call_hypothese2.flby2.next))
(define-fun .def_805 () Bool (and call__main_.call_hypothese2.ite2.next call__main_.call_hypothese2.ite.next))
(define-fun .def_807 () Bool (= .def_805 call__main_.call_hypothese2.flby.next))
(define-fun .def_689 () Bool (<= 9 call__main_.call_hypothese2.c))
(define-fun .def_803 () Bool (or call__main_.call_hypothese2.ite2.next .def_689))
(define-fun .def_801 () Bool (= call__main_.call_hypothese.ite4.next call__main_.call_hypothese.flby2.next))
(define-fun .def_796 () Bool (and call__main_.call_hypothese.ite2.next call__main_.call_hypothese.ite.next))
(define-fun .def_798 () Bool (= .def_796 call__main_.call_hypothese.flby.next))
(define-fun .def_714 () Bool (<= 9 call__main_.call_hypothese.c))
(define-fun .def_794 () Bool (or call__main_.call_hypothese.ite2.next .def_714))
(define-fun .def_792 () Bool (= call__main_.ite3.next call__main_.flby3.next))
(define-fun .def_789 () Bool (= call__main_.ite2.next call__main_.flby2.next))
(define-fun .def_786 () Bool (= call__main_.ite.next call__main_.flby.next))
(define-fun .def_783 () Bool (or call__main_.retard1 call__main_.call_hypothese2.ite.next))
(define-fun .def_781 () Bool (or call__main_.retard0 call__main_.call_hypothese.ite.next))
(define-fun .def_774 () Bool (and call__main_.avance1 call__main_.avance1.next))
(define-fun .def_777 () Bool (not .def_774))
(define-fun .def_776 () Bool (= call__main_.call_hypothese2.ite3.next call__main_.call_hypothese2.ite4.next))
(define-fun .def_778 () Bool (or .def_776 .def_777))
(define-fun .def_772 () Bool (= call__main_.call_hypothese2.ite4.next 0))
(define-fun .def_775 () Bool (or .def_772 .def_774))
(define-fun .def_779 () Bool (and .def_775 .def_778))
(define-fun .def_764 () Bool (and call__main_.avance0 call__main_.avance0.next))
(define-fun .def_767 () Bool (not .def_764))
(define-fun .def_766 () Bool (= call__main_.call_hypothese.ite3.next call__main_.call_hypothese.ite4.next))
(define-fun .def_768 () Bool (or .def_766 .def_767))
(define-fun .def_762 () Bool (= call__main_.call_hypothese.ite4.next 0))
(define-fun .def_765 () Bool (or .def_762 .def_764))
(define-fun .def_769 () Bool (and .def_765 .def_768))
(define-fun .def_759 () Bool (= pOK flby2.next))
(define-fun .def_752 () Bool (and retard0 avance0.next))
(define-fun .def_750 () Bool (and avance0 retard0.next))
(define-fun .def_753 () Bool (or .def_750 .def_752))
(define-fun .def_754 () Bool (not .def_753))
(define-fun .def_756 () Bool (= .def_754 flby.next))
(define-fun .def_745 () Bool (= call__main_.nS call__main_.ite3.next))
(define-fun .def_746 () Bool (or param__S_.next .def_745))
(define-fun .def_740 () Int (* (- 1) call__main_.ite3.next))
(define-fun .def_741 () Int (+ call__main_.nS .def_740))
(define-fun .def_742 () Bool (= .def_741 (- 1)))
(define-fun .def_729 () Bool (not param__S_.next))
(define-fun .def_743 () Bool (or .def_729 .def_742))
(define-fun .def_736 () Bool (not call__main_.retard0))
(define-fun .def_735 () Bool (= .def_729 call__main_.call_hypothese.ite.next))
(define-fun .def_737 () Bool (or .def_735 .def_736))
(define-fun .def_732 () Bool (not call__main_.retard1))
(define-fun .def_731 () Bool (= .def_729 call__main_.call_hypothese2.ite.next))
(define-fun .def_733 () Bool (or .def_731 .def_732))
(define-fun .def_738 () Bool (and .def_733 .def_737))
(define-fun .def_744 () Bool (and .def_738 .def_743))
(define-fun .def_747 () Bool (and .def_744 .def_746))
(define-fun .def_722 () Bool (= call__main_.nB0 call__main_.ite.next))
(define-fun .def_725 () Bool (or param__B0_.next .def_722))
(define-fun .def_710 () Bool (not param__B0_.next))
(define-fun .def_723 () Bool (or .def_710 .def_722))
(define-fun .def_718 () Bool (= call__main_.call_hypothese.c call__main_.call_hypothese.ite3.next))
(define-fun .def_719 () Bool (or param__B0_.next .def_718))
(define-fun .def_715 () Bool (not .def_714))
(define-fun .def_713 () Bool (= .def_710 call__main_.call_hypothese.ite2.next))
(define-fun .def_716 () Bool (or .def_713 .def_715))
(define-fun .def_706 () Int (* (- 1) call__main_.call_hypothese.ite3.next))
(define-fun .def_707 () Int (+ call__main_.call_hypothese.c .def_706))
(define-fun .def_708 () Bool (= .def_707 (- 2)))
(define-fun .def_711 () Bool (or .def_708 .def_710))
(define-fun .def_717 () Bool (and .def_711 .def_716))
(define-fun .def_720 () Bool (and .def_717 .def_719))
(define-fun .def_724 () Bool (and .def_720 .def_723))
(define-fun .def_726 () Bool (and .def_724 .def_725))
(define-fun .def_702 () Bool (= call__main_.nB1 call__main_.ite2.next))
(define-fun .def_703 () Bool (or param__B1_.next .def_702))
(define-fun .def_697 () Int (* (- 1) call__main_.ite2.next))
(define-fun .def_698 () Int (+ call__main_.nB1 .def_697))
(define-fun .def_699 () Bool (= .def_698 (- 1)))
(define-fun .def_685 () Bool (not param__B1_.next))
(define-fun .def_700 () Bool (or .def_685 .def_699))
(define-fun .def_693 () Bool (= call__main_.call_hypothese2.c call__main_.call_hypothese2.ite3.next))
(define-fun .def_694 () Bool (or param__B1_.next .def_693))
(define-fun .def_690 () Bool (not .def_689))
(define-fun .def_688 () Bool (= .def_685 call__main_.call_hypothese2.ite2.next))
(define-fun .def_691 () Bool (or .def_688 .def_690))
(define-fun .def_681 () Int (* (- 1) call__main_.call_hypothese2.ite3.next))
(define-fun .def_682 () Int (+ call__main_.call_hypothese2.c .def_681))
(define-fun .def_683 () Bool (= .def_682 (- 2)))
(define-fun .def_686 () Bool (or .def_683 .def_685))
(define-fun .def_692 () Bool (and .def_686 .def_691))
(define-fun .def_695 () Bool (and .def_692 .def_694))
(define-fun .def_701 () Bool (and .def_695 .def_700))
(define-fun .def_704 () Bool (and .def_701 .def_703))
(define-fun .def_727 () Bool (and .def_704 .def_726))
(define-fun .def_748 () Bool (and .def_727 .def_747))
(define-fun .def_757 () Bool (and .def_748 .def_756))
(define-fun .def_760 () Bool (and .def_757 .def_759))
(define-fun .def_770 () Bool (and .def_760 .def_769))
(define-fun .def_780 () Bool (and .def_770 .def_779))
(define-fun .def_782 () Bool (and .def_780 .def_781))
(define-fun .def_784 () Bool (and .def_782 .def_783))
(define-fun .def_787 () Bool (and .def_784 .def_786))
(define-fun .def_790 () Bool (and .def_787 .def_789))
(define-fun .def_793 () Bool (and .def_790 .def_792))
(define-fun .def_795 () Bool (and .def_793 .def_794))
(define-fun .def_799 () Bool (and .def_795 .def_798))
(define-fun .def_802 () Bool (and .def_799 .def_801))
(define-fun .def_804 () Bool (and .def_802 .def_803))
(define-fun .def_808 () Bool (and .def_804 .def_807))
(define-fun .def_811 () Bool (and .def_808 .def_810))
(define-fun .def_834 () Bool (and .def_811 .def_833))
(define-fun .def_837 () Bool (and .def_834 .def_836))
(define-fun .def_840 () Bool (and .def_837 .def_839))
(define-fun .def_863 () Bool (and .def_840 .def_862))
(define-fun .def_866 () Bool (and .def_863 .def_865))
(define-fun .def_869 () Bool (and .def_866 .def_868))
(define-fun .def_890 () Bool (and .def_869 .def_889))
(define-fun .def_998 () Bool (and .def_890 .def_997))
(assert .def_998)
